\ LP format - for model browsing. Use MPS format to capture full model detail.
Maximize
  45.21428571428576 z1 + 21.92857142857137 z2 + 38.78571428571423 z3
   + 12.57142857142856 z4 + 25.14285714285714 z5 + 21.92857142857138 z6
   + 19 z7 + 11 z8 + 17.92857142857145 z9 + 31.28571428571419 z10 + 13 z11
   + 46 z12 + 19 z13 + 31.57142857142857 z14 + 39.85714285714287 z15
   + 37.71428571428562 z16 + 34.5 z17 + 37.78571428571421 z18 + 46 z19
   + 37.7142857142857 z20
Subject To
 constraint1: 47 z1 + 24 z2 + 41 z3 + 14 z4 + 26 z5 + 23 z6 + 19 z7 + 11 z8
   + 18 z9 + 33 z10 + 13 z11 + 46 z12 + 20 z13 + 32 z14 + 41 z15 + 39 z16
   + 36 z17 + 41 z18 + 48 z19 + 40 z20 <= 200
 constraints2_8_&_11: z8 - z11 = 0
 constraints2_11_&_18: z11 - z18 = 0
 constraints3_1_|_9: z1 + z9 <= 1
 constraints3_1_|_12: z1 + z12 <= 1
 constraints3_1_|_14: z1 + z14 <= 1
 constraints3_5_|_12: z5 + z12 <= 1
 constraints3_6_|_15: z6 + z15 <= 1
 constraints3_7_|_13: z7 + z13 <= 1
 constraints3_7_|_16: z7 + z16 <= 1
 constraints3_8_|_12: z8 + z12 <= 1
 constraints3_8_|_20: z8 + z20 <= 1
 constraints3_9_|_14: z9 + z14 <= 1
 constraints3_9_|_17: z9 + z17 <= 1
 constraints3_10_|_19: z10 + z19 <= 1
 constraints3_11_|_20: z11 + z20 <= 1
 constraints3_12_|_15: z12 + z15 <= 1
 constraints3_12_|_16: z12 + z16 <= 1
 constraints3_12_|_19: z12 + z19 <= 1
 constraints3_14_|_15: z14 + z15 <= 1
 constraints3_14_|_19: z14 + z19 <= 1
 constraints3_18_|_20: z18 + z20 <= 1
Bounds
Binaries
 z1 z2 z3 z4 z5 z6 z7 z8 z9 z10 z11 z12 z13 z14 z15 z16 z17 z18 z19 z20
End
